Problem:    oficinas
Rows:       20
Columns:    36 (36 integer, 36 binary)
Non-zeros:  124
Status:     INTEGER OPTIMAL
Objective:  Z = 160 (MINimum)

   No.   Row name        Activity     Lower bound   Upper bound
------ ------------    ------------- ------------- -------------
     1 Z                         160                             
     2 cadaTrabajadorUnaOficina[1]
                                   1             1             = 
     3 cadaTrabajadorUnaOficina[2]
                                   1             1             = 
     4 cadaTrabajadorUnaOficina[3]
                                   1             1             = 
     5 cadaTrabajadorUnaOficina[4]
                                   1             1             = 
     6 cadaTrabajadorUnaOficina[5]
                                   1             1             = 
     7 cadaTrabajadorUnaOficina[6]
                                   1             1             = 
     8 cadaOficinaUnTrabajador[1]
                                   1             1             = 
     9 cadaOficinaUnTrabajador[2]
                                   1             1             = 
    10 cadaOficinaUnTrabajador[3]
                                   1             1             = 
    11 cadaOficinaUnTrabajador[4]
                                   1             1             = 
    12 cadaOficinaUnTrabajador[5]
                                   1             1             = 
    13 cadaOficinaUnTrabajador[6]
                                   1             1             = 
    14 juanNoOficina3
                                   0            -0             = 
    15 AnaEn3NoPedro5
                                   1                           1 
    16 AnaEn5NoPedro3
                                   0                           1 
    17 Juan1o4o5                   1                           1 
    18 SiCamila1EntAna3
                                  -1                          -0 
    19 SiSergio2yAna3EntAngela6
                                   1                           1 
    20 SiJuanoSergio3EntCamila6
                                  -2                          -0 

   No. Column name       Activity     Lower bound   Upper bound
------ ------------    ------------- ------------- -------------
     1 X[1,1]       *              0             0             1 
     2 X[1,2]       *              0             0             1 
     3 X[1,3]       *              0             0             1 
     4 X[1,4]       *              1             0             1 
     5 X[1,5]       *              0             0             1 
     6 X[1,6]       *              0             0             1 
     7 X[2,1]       *              0             0             1 
     8 X[2,2]       *              0             0             1 
     9 X[2,3]       *              1             0             1 
    10 X[2,4]       *              0             0             1 
    11 X[2,5]       *              0             0             1 
    12 X[2,6]       *              0             0             1 
    13 X[3,1]       *              0             0             1 
    14 X[3,2]       *              1             0             1 
    15 X[3,3]       *              0             0             1 
    16 X[3,4]       *              0             0             1 
    17 X[3,5]       *              0             0             1 
    18 X[3,6]       *              0             0             1 
    19 X[4,1]       *              0             0             1 
    20 X[4,2]       *              0             0             1 
    21 X[4,3]       *              0             0             1 
    22 X[4,4]       *              0             0             1 
    23 X[4,5]       *              0             0             1 
    24 X[4,6]       *              1             0             1 
    25 X[5,1]       *              0             0             1 
    26 X[5,2]       *              0             0             1 
    27 X[5,3]       *              0             0             1 
    28 X[5,4]       *              0             0             1 
    29 X[5,5]       *              1             0             1 
    30 X[5,6]       *              0             0             1 
    31 X[6,1]       *              1             0             1 
    32 X[6,2]       *              0             0             1 
    33 X[6,3]       *              0             0             1 
    34 X[6,4]       *              0             0             1 
    35 X[6,5]       *              0             0             1 
    36 X[6,6]       *              0             0             1 

Integer feasibility conditions:

KKT.PE: max.abs.err = 0.00e+00 on row 0
        max.rel.err = 0.00e+00 on row 0
        High quality

KKT.PB: max.abs.err = 0.00e+00 on row 0
        max.rel.err = 0.00e+00 on row 0
        High quality

End of output
